r=4; % radius of tesselated grid (const)
n=60; % how many numbers (const)
t=6; % number of tunnels (variable, adjust second array declaration)

snake = array2d(1..n,1..3,[
 %x,y,z, %n
  -4,4,_, %1
  _,_,_, %2
  _,_,_, %3
  _,2,0, %4
  _,_,_, %5
  _,_,_, %6
  _,_,_, %7
  _,_,_, %8
  _,_,_, %9
  _,_,_, %10
  _,_,_, %11
  _,_,_, %12
  -1,4,_, %13
  _,_,_, %14
  0,4,_, %15
  _,_,_, %16
  2,2,_, %17
  _,_,_, %18
  _,_,_, %19
  _,_,_, %20
  _,_,_, %21
  _,_,_, %22
  _,_,_, %23
  _,_,_, %24
  _,_,_, %25
  _,_,_, %26
  _,_,_, %27
  2,-4,_, %28
  _,_,_, %29
  _,_,_, %30
  _,_,_, %31
  _,_,_, %32
  _,_,_, %33
  _,_,_, %34
  _,_,_, %35
  -1,-2,_, %36
  _,_,_, %37
  _,_,_, %38
  _,_,_, %39
  _,_,_, %40
  -3,-1,_, %41
  -3,0,_, %42
  _,_,_, %43
  _,_,_, %44
  _,_,_, %45
  _,_,_, %46
  _,_,_, %47
  _,_,_, %48
  _,_,_, %49
  _,_,_, %50
  -2,1,_, %51
  _,_,_, %52
  _,_,_, %53
  _,_,_, %54
  _,_,_, %55
  _,_,_, %56
  _,_,_, %57
  _,_,_, %58
  _,_,_, %59
  3,-1,_  %60
]);

tunnels = array3d(1..t,1..2,1..3,[
    _,-2,4, %coorinate couple for a tunnel
    _,-3,4,
    
    _,1,-2,
    _,2,-2,
    
    _,0,-4,
    _,1,-4,
    
    2,1,_,
    3,1,_,
    
    _,-1,0,
    _,-1,-1,
    
    0,-4,_,
    1,-4,_

]);